(set-option :print-success false)
(set-logic QF_S)
; benchmark generated from python API
(set-info :status unknown)
(declare-fun var21 () String)
(declare-fun var28 () String)
(declare-fun var15 () String)
(declare-fun var14 () String)
(declare-fun var29 () String)
(declare-fun var26 () String)
(declare-fun var5 () String)
(declare-fun var0 () String)
(declare-fun var16 () String)
(declare-fun var13 () String)
(declare-fun var20 () String)
(declare-fun var12 () String)
(declare-fun var7 () String)
(declare-fun var18 () String)
(declare-fun var24 () String)
(declare-fun var6 () String)
(declare-fun var1 () String)
(declare-fun var3 () String)
(declare-fun var8 () String)
(declare-fun var22 () String)
(declare-fun var17 () String)
(declare-fun var11 () String)

(push 2)
  (assert
   (let ((?x89 (str.len var21)))
   (let (($x72354 (= 43 ?x89)))
   (let (($x144235 (not $x72354)))
   (let ((?x115 (str.len var28)))
   (let (($x79470 (= 23 ?x115)))
   (let ((?x66 (str.len var15)))
   (let (($x134243 (= 45 ?x66)))
   (let (($x148180 (and $x134243 $x79470)))
   (let (($x142223 (and $x148180 $x144235)))
   (let (($x1857877 (not $x142223)))
   (let ((?x62 (str.len var14)))
   (let (($x175472 (= 43 ?x62)))
   (let (($x2085395 (not $x175472)))
   (let (($x2085295 (not $x2085395)))
   (let (($x1856994 (and $x72354 $x2085295)))
   (let ((?x119 (str.len var29)))
   (let (($x80028 (= 12 ?x119)))
   (let (($x1854529 (and $x80028 $x1856994)))
   (and $x1854529 $x1857877))))))))))))))))))))
  (assert
   (let ((?x108 (str.len var26)))
   (let (($x175928 (= 25 ?x108)))
   (let ((?x27 (str.len var5)))
   (let (($x200652 (= 3 ?x27)))
   (let (($x143496 (not $x200652)))
   (let (($x138319 (not $x143496)))
   (and $x138319 $x175928))))))))
(check-sat)
(pop 1)

(push 2)
  (assert
   (let ((?x7 (str.len var0)))
   (let (($x175309 (= 22 ?x7)))
   (let (($x2085308 (not $x175309)))
   (not $x2085308)))))
  (assert
   (let ((?x70 (str.len var16)))
   (let (($x175552 (= 39 ?x70)))
   (let ((?x58 (str.len var13)))
   (let (($x79838 (= 7 ?x58)))
   (and $x79838 $x175552))))))
(check-sat)
(pop 2)

(push 2)
  (assert
   (let ((?x89 (str.len var21)))
   (let (($x72354 (= 43 ?x89)))
   (let (($x144235 (not $x72354)))
   (let ((?x115 (str.len var28)))
   (let (($x79470 (= 23 ?x115)))
   (let ((?x66 (str.len var15)))
   (let (($x134243 (= 45 ?x66)))
   (let (($x148180 (and $x134243 $x79470)))
   (let (($x142223 (and $x148180 $x144235)))
   (let (($x1857877 (not $x142223)))
   (let (($x1856616 (not $x1857877)))
   (not $x1856616)))))))))))))
  (assert
   (let ((?x85 (str.len var20)))
   (let (($x97703 (= 18 ?x85)))
   (let (($x1354623 (not $x97703)))
   (not $x1354623)))))
(check-sat)
(pop 0)

(push 2)
  (assert
   (let ((?x58 (str.len var13)))
   (let (($x79838 (= 7 ?x58)))
   (let (($x1853331 (not $x79838)))
   (not $x1853331)))))
  (assert
   (let ((?x62 (str.len var14)))
   (let (($x175472 (= 43 ?x62)))
   (let (($x2085395 (not $x175472)))
   (not $x2085395)))))
(check-sat)
(pop 2)

(push 2)
  (assert
   (let ((?x27 (str.len var5)))
   (let (($x200652 (= 3 ?x27)))
   (let (($x143496 (not $x200652)))
   (let (($x138319 (not $x143496)))
   (let ((?x54 (str.len var12)))
   (let (($x133524 (= 41 ?x54)))
   (let (($x686864 (and $x133524 $x138319)))
   (let ((?x89 (str.len var21)))
   (let (($x72354 (= 43 ?x89)))
   (let (($x144235 (not $x72354)))
   (let ((?x115 (str.len var28)))
   (let (($x79470 (= 23 ?x115)))
   (let ((?x66 (str.len var15)))
   (let (($x134243 (= 45 ?x66)))
   (let (($x148180 (and $x134243 $x79470)))
   (let (($x142223 (and $x148180 $x144235)))
   (let ((?x70 (str.len var16)))
   (let (($x175552 (= 39 ?x70)))
   (let ((?x7 (str.len var0)))
   (let (($x175309 (= 22 ?x7)))
   (let (($x143022 (and $x175309 $x175552)))
   (let (($x2085415 (and $x143022 $x142223)))
   (let (($x2085306 (and $x2085415 $x686864)))
   (let (($x2085315 (and $x175309 $x2085306)))
   (not $x2085315))))))))))))))))))))))))))
  (assert
   (let ((?x34 (str.len var7)))
   (let (($x72792 (= 44 ?x34)))
   (let (($x2085391 (not $x72792)))
   (not $x2085391)))))
(check-sat)
(pop 2)

(push 2)
  (assert
   (let ((?x27 (str.len var5)))
   (let (($x200652 (= 3 ?x27)))
   (let (($x143496 (not $x200652)))
   (let (($x138319 (not $x143496)))
   (let ((?x89 (str.len var21)))
   (let (($x72354 (= 43 ?x89)))
   (let (($x144235 (not $x72354)))
   (let ((?x115 (str.len var28)))
   (let (($x79470 (= 23 ?x115)))
   (let ((?x66 (str.len var15)))
   (let (($x134243 (= 45 ?x66)))
   (let (($x148180 (and $x134243 $x79470)))
   (let (($x142223 (and $x148180 $x144235)))
   (let (($x2085433 (and $x142223 $x143496)))
   (let (($x1858003 (and $x144235 $x2085433)))
   (let ((?x62 (str.len var14)))
   (let (($x175472 (= 43 ?x62)))
   (let (($x2085395 (not $x175472)))
   (let (($x2085295 (not $x2085395)))
   (let (($x63905 (and $x2085295 $x1858003)))
   (let (($x1854150 (not $x63905)))
   (let (($x1850479 (and $x1854150 $x138319)))
   (and $x79470 $x1850479))))))))))))))))))))))))
  (assert
   (let ((?x77 (str.len var18)))
   (let (($x132299 (= 8 ?x77)))
   (let (($x2085402 (not $x132299)))
   (let (($x2085442 (not $x2085402)))
   (let (($x1855222 (not $x2085442)))
   (not $x1855222)))))))
(check-sat)
(pop 1)

(push 2)
  (assert
   (let ((?x27 (str.len var5)))
   (let (($x200652 (= 3 ?x27)))
   (let (($x143496 (not $x200652)))
   (let (($x138319 (not $x143496)))
   (let ((?x54 (str.len var12)))
   (let (($x133524 (= 41 ?x54)))
   (let (($x686864 (and $x133524 $x138319)))
   (let ((?x89 (str.len var21)))
   (let (($x72354 (= 43 ?x89)))
   (let (($x144235 (not $x72354)))
   (let ((?x115 (str.len var28)))
   (let (($x79470 (= 23 ?x115)))
   (let ((?x66 (str.len var15)))
   (let (($x134243 (= 45 ?x66)))
   (let (($x148180 (and $x134243 $x79470)))
   (let (($x142223 (and $x148180 $x144235)))
   (let ((?x70 (str.len var16)))
   (let (($x175552 (= 39 ?x70)))
   (let ((?x7 (str.len var0)))
   (let (($x175309 (= 22 ?x7)))
   (let (($x143022 (and $x175309 $x175552)))
   (let (($x2085415 (and $x143022 $x142223)))
   (let (($x2085306 (and $x2085415 $x686864)))
   (let ((?x101 (str.len var24)))
   (let (($x80320 (= 12 ?x101)))
   (let (($x1849407 (not $x80320)))
   (let (($x1849147 (and $x1849407 $x2085306)))
   (not $x1849147)))))))))))))))))))))))))))))
  (assert
   (let ((?x7 (str.len var0)))
   (let (($x175309 (= 22 ?x7)))
   (let ((?x31 (str.len var6)))
   (let (($x132958 (= 39 ?x31)))
   (and $x132958 $x175309))))))
(check-sat)
(pop 0)

(push 2)
  (assert
   (let ((?x54 (str.len var12)))
   (let (($x133524 (= 41 ?x54)))
   (let (($x1856427 (not $x133524)))
   (not $x1856427)))))
  (assert
   (let ((?x11 (str.len var1)))
   (let (($x80227 (= 12 ?x11)))
   (let ((?x89 (str.len var21)))
   (let (($x72354 (= 43 ?x89)))
   (let (($x142009 (and $x72354 $x80227)))
   (let ((?x19 (str.len var3)))
   (let (($x160009 (= 31 ?x19)))
   (let (($x1857625 (and $x160009 $x142009)))
   (let (($x1853142 (not $x1857625)))
   (not $x1853142)))))))))))
(check-sat)
(pop 0)

(push 2)
  (assert
   (let ((?x38 (str.len var8)))
   (let (($x79728 (= 29 ?x38)))
   (let ((?x7 (str.len var0)))
   (let (($x175309 (= 22 ?x7)))
   (let (($x2085298 (and $x175309 $x79728)))
   (let (($x686926 (not $x2085298)))
   (not $x686926))))))))
  (assert
   (let ((?x108 (str.len var26)))
   (let (($x175928 (= 25 ?x108)))
   (let ((?x27 (str.len var5)))
   (let (($x200652 (= 3 ?x27)))
   (let (($x143496 (not $x200652)))
   (let (($x138319 (not $x143496)))
   (let (($x2085434 (and $x138319 $x175928)))
   (let ((?x89 (str.len var21)))
   (let (($x72354 (= 43 ?x89)))
   (let (($x144235 (not $x72354)))
   (let ((?x115 (str.len var28)))
   (let (($x79470 (= 23 ?x115)))
   (let ((?x66 (str.len var15)))
   (let (($x134243 (= 45 ?x66)))
   (let (($x148180 (and $x134243 $x79470)))
   (let (($x142223 (and $x148180 $x144235)))
   (let (($x2085433 (and $x142223 $x143496)))
   (let (($x2085301 (and $x2085433 $x2085433)))
   (let (($x1855726 (and $x2085301 $x2085434)))
   (let ((?x62 (str.len var14)))
   (let (($x175472 (= 43 ?x62)))
   (let (($x2085395 (not $x175472)))
   (let (($x2085295 (not $x2085395)))
   (let (($x1856994 (and $x72354 $x2085295)))
   (let (($x1213942 (not $x1856994)))
   (let (($x2085338 (and $x142223 $x2085395)))
   (let ((?x85 (str.len var20)))
   (let (($x97703 (= 18 ?x85)))
   (let (($x1853205 (and $x97703 $x2085338)))
   (let (($x1852890 (and $x1853205 $x1213942)))
   (let (($x1852314 (and $x1852890 $x1855726)))
   (not $x1852314)))))))))))))))))))))))))))))))))
(check-sat)
(pop 2)

(push 2)
  (assert
   (let ((?x27 (str.len var5)))
   (let (($x200652 (= 3 ?x27)))
   (let (($x143496 (not $x200652)))
   (let ((?x89 (str.len var21)))
   (let (($x72354 (= 43 ?x89)))
   (let (($x144235 (not $x72354)))
   (let ((?x115 (str.len var28)))
   (let (($x79470 (= 23 ?x115)))
   (let ((?x66 (str.len var15)))
   (let (($x134243 (= 45 ?x66)))
   (let (($x148180 (and $x134243 $x79470)))
   (let (($x142223 (and $x148180 $x144235)))
   (let (($x2085433 (and $x142223 $x143496)))
   (let (($x1858003 (and $x144235 $x2085433)))
   (let (($x1856679 (not $x1858003)))
   (let (($x1851936 (not $x1856679)))
   (not $x1851936))))))))))))))))))
  (assert
   (let ((?x93 (str.len var22)))
   (let (($x176689 (= 7 ?x93)))
   (let (($x60572 (not $x176689)))
   (not $x60572)))))
(check-sat)
(pop 1)

(push 2)
  (assert
   (let ((?x89 (str.len var21)))
   (let (($x72354 (= 43 ?x89)))
   (let (($x144235 (not $x72354)))
   (let ((?x115 (str.len var28)))
   (let (($x79470 (= 23 ?x115)))
   (let ((?x66 (str.len var15)))
   (let (($x134243 (= 45 ?x66)))
   (let (($x148180 (and $x134243 $x79470)))
   (let (($x142223 (and $x148180 $x144235)))
   (let (($x1857877 (not $x142223)))
   (let (($x1856616 (not $x1857877)))
   (not $x1856616)))))))))))))
  (assert
   (let ((?x27 (str.len var5)))
   (let (($x200652 (= 3 ?x27)))
   (let (($x143496 (not $x200652)))
   (let ((?x77 (str.len var18)))
   (let (($x132299 (= 8 ?x77)))
   (let (($x148580 (and $x132299 $x143496)))
   (let (($x2085365 (not $x148580)))
   (let ((?x62 (str.len var14)))
   (let (($x175472 (= 43 ?x62)))
   (let (($x2085395 (not $x175472)))
   (let (($x1854907 (and $x2085395 $x2085365)))
   (not $x1854907)))))))))))))
(check-sat)
(pop 2)

(push 2)
  (assert
   (let ((?x73 (str.len var17)))
   (let (($x133176 (= 18 ?x73)))
   (let (($x144281 (not $x133176)))
   (not $x144281)))))
  (assert
   (let ((?x89 (str.len var21)))
   (let (($x72354 (= 43 ?x89)))
   (let (($x144235 (not $x72354)))
   (let ((?x115 (str.len var28)))
   (let (($x79470 (= 23 ?x115)))
   (let ((?x66 (str.len var15)))
   (let (($x134243 (= 45 ?x66)))
   (let (($x148180 (and $x134243 $x79470)))
   (let (($x142223 (and $x148180 $x144235)))
   (not $x142223)))))))))))
(check-sat)
(pop 2)

(push 2)
  (assert
   (let ((?x50 (str.len var11)))
   (= 21 ?x50)))
  (assert
   (let ((?x85 (str.len var20)))
   (let (($x97703 (= 18 ?x85)))
   (let (($x1354623 (not $x97703)))
   (not $x1354623)))))
(check-sat)
(pop 0)

(push 2)
  (assert
   (let ((?x77 (str.len var18)))
   (let (($x132299 (= 8 ?x77)))
   (let (($x2085402 (not $x132299)))
   (not $x2085402)))))
  (assert
   (let ((?x27 (str.len var5)))
   (let (($x200652 (= 3 ?x27)))
   (let ((?x89 (str.len var21)))
   (let (($x72354 (= 43 ?x89)))
   (let (($x144235 (not $x72354)))
   (let (($x1852251 (and $x144235 $x200652)))
   (not $x1852251))))))))
(check-sat)
(pop 2)

(push 2)
  (assert
   (let ((?x27 (str.len var5)))
   (let (($x200652 (= 3 ?x27)))
   (let ((?x62 (str.len var14)))
   (let (($x175472 (= 43 ?x62)))
   (and $x175472 $x200652))))))
  (assert
   (let ((?x70 (str.len var16)))
   (let (($x175552 (= 39 ?x70)))
   (let ((?x7 (str.len var0)))
   (let (($x175309 (= 22 ?x7)))
   (and $x175309 $x175552))))))
(check-sat)

